c nIsolatedPIs 0
c maxPI 32
p cnf 228 589
c gate 33 -14 -30 0
-14 -33 0
-30 -33 0
14 30 33 0
c gate 34 14 30 0
14 -34 0
30 -34 0
-14 -30 34 0
c gate 35 -33 -34 0
-33 -35 0
-34 -35 0
33 34 35 0
c gate 36 12 28 0
12 -36 0
28 -36 0
-12 -28 36 0
c gate 37 13 29 0
13 -37 0
29 -37 0
-13 -29 37 0
c gate 38 -36 -37 0
-36 -38 0
-37 -38 0
36 37 38 0
c gate 39 35 -38 0
35 -39 0
-38 -39 0
-35 38 39 0
c gate 40 -35 38 0
-35 -40 0
38 -40 0
35 -38 40 0
c gate 41 -39 -40 0
-39 -41 0
-40 -41 0
39 40 41 0
c gate 42 -13 -29 0
-13 -42 0
-29 -42 0
13 29 42 0
c gate 43 -12 -28 0
-12 -43 0
-28 -43 0
12 28 43 0
c gate 44 -36 -43 0
-36 -44 0
-43 -44 0
36 43 44 0
c gate 45 -11 -27 0
-11 -45 0
-27 -45 0
11 27 45 0
c gate 46 -10 -26 0
-10 -46 0
-26 -46 0
10 26 46 0
c gate 47 9 25 0
9 -47 0
25 -47 0
-9 -25 47 0
c gate 48 -6 -22 0
-6 -48 0
-22 -48 0
6 22 48 0
c gate 49 5 21 0
5 -49 0
21 -49 0
-5 -21 49 0
c gate 50 -3 -19 0
-3 -50 0
-19 -50 0
3 19 50 0
c gate 51 2 18 0
2 -51 0
18 -51 0
-2 -18 51 0
c gate 52 -2 -18 0
-2 -52 0
-18 -52 0
2 18 52 0
c gate 53 1 17 0
1 -53 0
17 -53 0
-1 -17 53 0
c gate 54 -52 53 0
-52 -54 0
53 -54 0
52 -53 54 0
c gate 55 -51 -54 0
-51 -55 0
-54 -55 0
51 54 55 0
c gate 56 -50 -55 0
-50 -56 0
-55 -56 0
50 55 56 0
c gate 57 4 20 0
4 -57 0
20 -57 0
-4 -20 57 0
c gate 58 3 19 0
3 -58 0
19 -58 0
-3 -19 58 0
c gate 59 -57 -58 0
-57 -59 0
-58 -59 0
57 58 59 0
c gate 60 -56 59 0
-56 -60 0
59 -60 0
56 -59 60 0
c gate 61 -4 -20 0
-4 -61 0
-20 -61 0
4 20 61 0
c gate 62 -5 -21 0
-5 -62 0
-21 -62 0
5 21 62 0
c gate 63 -61 -62 0
-61 -63 0
-62 -63 0
61 62 63 0
c gate 64 -60 63 0
-60 -64 0
63 -64 0
60 -63 64 0
c gate 65 -49 -64 0
-49 -65 0
-64 -65 0
49 64 65 0
c gate 66 -48 -65 0
-48 -66 0
-65 -66 0
48 65 66 0
c gate 67 6 22 0
6 -67 0
22 -67 0
-6 -22 67 0
c gate 68 7 -23 0
7 -68 0
-23 -68 0
-7 23 68 0
c gate 69 -7 23 0
-7 -69 0
23 -69 0
7 -23 69 0
c gate 70 -68 -69 0
-68 -70 0
-69 -70 0
68 69 70 0
c gate 71 -67 -70 0
-67 -71 0
-70 -71 0
67 70 71 0
c gate 72 -66 71 0
-66 -72 0
71 -72 0
66 -71 72 0
c gate 73 8 24 0
8 -73 0
24 -73 0
-8 -24 73 0
c gate 74 -8 -24 0
-8 -74 0
-24 -74 0
8 24 74 0
c gate 75 -73 -74 0
-73 -75 0
-74 -75 0
73 74 75 0
c gate 76 72 75 0
72 -76 0
75 -76 0
-72 -75 76 0
c gate 77 -7 -23 0
-7 -77 0
-23 -77 0
7 23 77 0
c gate 78 -73 77 0
-73 -78 0
77 -78 0
73 -77 78 0
c gate 79 -9 -25 0
-9 -79 0
-25 -79 0
9 25 79 0
c gate 80 -74 -79 0
-74 -80 0
-79 -80 0
74 79 80 0
c gate 81 -78 80 0
-78 -81 0
80 -81 0
78 -80 81 0
c gate 82 -76 81 0
-76 -82 0
81 -82 0
76 -81 82 0
c gate 83 -47 -82 0
-47 -83 0
-82 -83 0
47 82 83 0
c gate 84 -46 -83 0
-46 -84 0
-83 -84 0
46 83 84 0
c gate 85 11 27 0
11 -85 0
27 -85 0
-11 -27 85 0
c gate 86 10 26 0
10 -86 0
26 -86 0
-10 -26 86 0
c gate 87 -85 -86 0
-85 -87 0
-86 -87 0
85 86 87 0
c gate 88 -84 87 0
-84 -88 0
87 -88 0
84 -87 88 0
c gate 89 -45 -88 0
-45 -89 0
-88 -89 0
45 88 89 0
c gate 90 44 89 0
44 -90 0
89 -90 0
-44 -89 90 0
c gate 91 38 -90 0
38 -91 0
-90 -91 0
-38 90 91 0
c gate 92 -42 -91 0
-42 -92 0
-91 -92 0
42 91 92 0
c gate 93 35 -92 0
35 -93 0
-92 -93 0
-35 92 93 0
c gate 94 -35 92 0
-35 -94 0
92 -94 0
35 -92 94 0
c gate 95 -93 -94 0
-93 -95 0
-94 -95 0
93 94 95 0
c gate 96 41 95 0
41 -96 0
95 -96 0
-41 -95 96 0
c gate 97 -41 -95 0
-41 -97 0
-95 -97 0
41 95 97 0
c gate 98 -96 -97 0
-96 -98 0
-97 -98 0
96 97 98 0
c gate 99 -47 -86 0
-47 -99 0
-86 -99 0
47 86 99 0
c gate 100 -81 99 0
-81 -100 0
99 -100 0
81 -99 100 0
c gate 101 -45 -46 0
-45 -101 0
-46 -101 0
45 46 101 0
c gate 102 -100 101 0
-100 -102 0
101 -102 0
100 -101 102 0
c gate 103 -85 -102 0
-85 -103 0
-102 -103 0
85 102 103 0
c gate 104 -44 89 0
-44 -104 0
89 -104 0
44 -89 104 0
c gate 105 103 -104 0
103 -105 0
-104 -105 0
-103 104 105 0
c gate 106 44 -89 0
44 -106 0
-89 -106 0
-44 89 106 0
c gate 107 -103 -106 0
-103 -107 0
-106 -107 0
103 106 107 0
c gate 108 -105 -107 0
-105 -108 0
-107 -108 0
105 107 108 0
c gate 109 98 108 0
98 -109 0
108 -109 0
-98 -108 109 0
c gate 110 -15 -31 0
-15 -110 0
-31 -110 0
15 31 110 0
c gate 111 15 31 0
15 -111 0
31 -111 0
-15 -31 111 0
c gate 112 -110 -111 0
-110 -112 0
-111 -112 0
110 111 112 0
c gate 113 -33 -93 0
-33 -113 0
-93 -113 0
33 93 113 0
c gate 114 112 -113 0
112 -114 0
-113 -114 0
-112 113 114 0
c gate 115 -110 -114 0
-110 -115 0
-114 -115 0
110 114 115 0
c gate 116 16 -32 0
16 -116 0
-32 -116 0
-16 32 116 0
c gate 117 -16 32 0
-16 -117 0
32 -117 0
16 -32 117 0
c gate 118 -116 -117 0
-116 -118 0
-117 -118 0
116 117 118 0
c gate 119 -115 -118 0
-115 -119 0
-118 -119 0
115 118 119 0
c gate 120 115 118 0
115 -120 0
118 -120 0
-115 -118 120 0
c gate 121 -119 -120 0
-119 -121 0
-120 -121 0
119 120 121 0
c gate 122 -34 -39 0
-34 -122 0
-39 -122 0
34 39 122 0
c gate 123 112 122 0
112 -123 0
122 -123 0
-112 -122 123 0
c gate 124 -110 -123 0
-110 -124 0
-123 -124 0
110 123 124 0
c gate 125 -118 -124 0
-118 -125 0
-124 -125 0
118 124 125 0
c gate 126 118 124 0
118 -126 0
124 -126 0
-118 -124 126 0
c gate 127 -125 -126 0
-125 -127 0
-126 -127 0
125 126 127 0
c gate 128 -121 127 0
-121 -128 0
127 -128 0
121 -127 128 0
c gate 129 121 -127 0
121 -129 0
-127 -129 0
-121 127 129 0
c gate 130 -112 -122 0
-112 -130 0
-122 -130 0
112 122 130 0
c gate 131 -123 -130 0
-123 -131 0
-130 -131 0
123 130 131 0
c gate 132 -112 113 0
-112 -132 0
113 -132 0
112 -113 132 0
c gate 133 -114 -132 0
-114 -133 0
-132 -133 0
114 132 133 0
c gate 134 131 -133 0
131 -134 0
-133 -134 0
-131 133 134 0
c gate 135 -131 133 0
-131 -135 0
133 -135 0
131 -133 135 0
c gate 136 -37 -42 0
-37 -136 0
-42 -136 0
37 42 136 0
c gate 137 90 -136 0
90 -137 0
-136 -137 0
-90 136 137 0
c gate 138 -97 -137 0
-97 -138 0
-137 -138 0
97 137 138 0
c gate 139 -135 -138 0
-135 -139 0
-138 -139 0
135 138 139 0
c gate 140 -134 -139 0
-134 -140 0
-139 -140 0
134 139 140 0
c gate 141 -129 -140 0
-129 -141 0
-140 -141 0
129 140 141 0
c gate 142 -128 -141 0
-128 -142 0
-141 -142 0
128 141 142 0
c gate 143 -109 142 0
-109 -143 0
142 -143 0
109 -142 143 0
c gate 144 -76 -90 0
-76 -144 0
-90 -144 0
76 90 144 0
c gate 145 98 144 0
98 -145 0
144 -145 0
-98 -144 145 0
c gate 146 -143 -145 0
-143 -146 0
-145 -146 0
143 145 146 0
c gate 147 10 -26 0
10 -147 0
-26 -147 0
-10 26 147 0
c gate 148 8 -24 0
8 -148 0
-24 -148 0
-8 24 148 0
c gate 149 -47 -79 0
-47 -149 0
-79 -149 0
47 79 149 0
c gate 150 -148 -149 0
-148 -150 0
-149 -150 0
148 149 150 0
c gate 151 -9 25 0
-9 -151 0
25 -151 0
9 -25 151 0
c gate 152 -10 26 0
-10 -152 0
26 -152 0
10 -26 152 0
c gate 153 -151 -152 0
-151 -153 0
-152 -153 0
151 152 153 0
c gate 154 -150 153 0
-150 -154 0
153 -154 0
150 -153 154 0
c gate 155 -147 -154 0
-147 -155 0
-154 -155 0
147 154 155 0
c gate 156 -4 20 0
-4 -156 0
20 -156 0
4 -20 156 0
c gate 157 -3 19 0
-3 -157 0
19 -157 0
3 -19 157 0
c gate 158 2 -18 0
2 -158 0
-18 -158 0
-2 18 158 0
c gate 159 -2 18 0
-2 -159 0
18 -159 0
2 -18 159 0
c gate 160 -1 17 0
-1 -160 0
17 -160 0
1 -17 160 0
c gate 161 -159 -160 0
-159 -161 0
-160 -161 0
159 160 161 0
c gate 162 3 -19 0
3 -162 0
-19 -162 0
-3 19 162 0
c gate 163 -161 -162 0
-161 -163 0
-162 -163 0
161 162 163 0
c gate 164 -158 163 0
-158 -164 0
163 -164 0
158 -163 164 0
c gate 165 -157 -164 0
-157 -165 0
-164 -165 0
157 164 165 0
c gate 166 -156 165 0
-156 -166 0
165 -166 0
156 -165 166 0
c gate 167 4 -20 0
4 -167 0
-20 -167 0
-4 20 167 0
c gate 168 -49 -62 0
-49 -168 0
-62 -168 0
49 62 168 0
c gate 169 -167 -168 0
-167 -169 0
-168 -169 0
167 168 169 0
c gate 170 -166 169 0
-166 -170 0
169 -170 0
166 -169 170 0
c gate 171 -48 -67 0
-48 -171 0
-67 -171 0
48 67 171 0
c gate 172 -5 21 0
-5 -172 0
21 -172 0
5 -21 172 0
c gate 173 -171 -172 0
-171 -173 0
-172 -173 0
171 172 173 0
c gate 174 -170 173 0
-170 -174 0
173 -174 0
170 -173 174 0
c gate 175 -69 174 0
-69 -175 0
174 -175 0
69 -174 175 0
c gate 176 6 -22 0
6 -176 0
-22 -176 0
-6 22 176 0
c gate 177 -69 176 0
-69 -177 0
176 -177 0
69 -176 177 0
c gate 178 -68 -177 0
-68 -178 0
-177 -178 0
68 177 178 0
c gate 179 -175 178 0
-175 -179 0
178 -179 0
175 -178 179 0
c gate 180 -75 -179 0
-75 -180 0
-179 -180 0
75 179 180 0
c gate 181 153 180 0
153 -181 0
180 -181 0
-153 -180 181 0
c gate 182 155 -181 0
155 -182 0
-181 -182 0
-155 181 182 0
c gate 183 -45 -85 0
-45 -183 0
-85 -183 0
45 85 183 0
c gate 184 182 -183 0
182 -184 0
-183 -184 0
-182 183 184 0
c gate 185 163 165 0
163 -185 0
165 -185 0
-163 -165 185 0
c gate 186 -156 169 0
-156 -186 0
169 -186 0
156 -169 186 0
c gate 187 185 186 0
185 -187 0
186 -187 0
-185 -186 187 0
c gate 188 -174 -187 0
-174 -188 0
-187 -188 0
174 187 188 0
c gate 189 70 -171 0
70 -189 0
-171 -189 0
-70 171 189 0
c gate 190 -188 -189 0
-188 -190 0
-189 -190 0
188 189 190 0
c gate 191 185 -186 0
185 -191 0
-186 -191 0
-185 186 191 0
c gate 192 158 160 0
158 -192 0
160 -192 0
-158 -160 192 0
c gate 193 119 124 0
119 -193 0
124 -193 0
-119 -124 193 0
c gate 194 -192 -193 0
-192 -194 0
-193 -194 0
192 193 194 0
c gate 195 -185 -194 0
-185 -195 0
-194 -195 0
185 194 195 0
c gate 196 115 125 0
115 -196 0
125 -196 0
-115 -125 196 0
c gate 197 194 -196 0
194 -197 0
-196 -197 0
-194 196 197 0
c gate 198 146 197 0
146 -198 0
197 -198 0
-146 -197 198 0
c gate 199 -195 -198 0
-195 -199 0
-198 -199 0
195 198 199 0
c gate 200 -191 199 0
-191 -200 0
199 -200 0
191 -199 200 0
c gate 201 188 -200 0
188 -201 0
-200 -201 0
-188 200 201 0
c gate 202 -190 -201 0
-190 -202 0
-201 -202 0
190 201 202 0
c gate 203 75 178 0
75 -203 0
178 -203 0
-75 -178 203 0
c gate 204 -179 203 0
-179 -204 0
203 -204 0
179 -203 204 0
c gate 205 202 -204 0
202 -205 0
-204 -205 0
-202 204 205 0
c gate 206 -180 -205 0
-180 -206 0
-205 -206 0
180 205 206 0
c gate 207 -147 -152 0
-147 -207 0
-152 -207 0
147 152 207 0
c gate 208 -149 207 0
-149 -208 0
207 -208 0
149 -207 208 0
c gate 209 180 -208 0
180 -209 0
-208 -209 0
-180 208 209 0
c gate 210 -206 -209 0
-206 -210 0
-209 -210 0
206 209 210 0
c gate 211 -182 183 0
-182 -211 0
183 -211 0
182 -183 211 0
c gate 212 -184 -211 0
-184 -212 0
-211 -212 0
184 211 212 0
c gate 213 155 -212 0
155 -213 0
-212 -213 0
-155 212 213 0
c gate 214 210 -213 0
210 -214 0
-213 -214 0
-210 213 214 0
c gate 215 -184 -214 0
-184 -215 0
-214 -215 0
184 214 215 0
c gate 216 -35 -112 0
-35 -216 0
-112 -216 0
35 112 216 0
c gate 217 -44 118 0
-44 -217 0
118 -217 0
44 -118 217 0
c gate 218 -136 217 0
-136 -218 0
217 -218 0
136 -217 218 0
c gate 219 216 218 0
216 -219 0
218 -219 0
-216 -218 219 0
c gate 220 184 219 0
184 -220 0
219 -220 0
-184 -219 220 0
c gate 221 -215 -220 0
-215 -221 0
-220 -221 0
215 220 221 0
c gate 222 -146 221 0
-146 -222 0
221 -222 0
146 -221 222 0
c gate 223 72 -108 0
72 -223 0
-108 -223 0
-72 108 223 0
c gate 224 -90 -223 0
-90 -224 0
-223 -224 0
90 223 224 0
c gate 225 98 224 0
98 -225 0
224 -225 0
-98 -224 225 0
c gate 226 142 -225 0
142 -226 0
-225 -226 0
-142 225 226 0
c gate 227 -221 -226 0
-221 -227 0
-226 -227 0
221 226 227 0
c gate 228 -222 -227 0
-222 -228 0
-227 -228 0
222 227 228 0
c PO
228 0
